0
Node Left Objective IInf Best_Integer Best_Bound ItCnt Gap
0+ 0 nan nan 136.4723 0.0000 nan 100.00%
0+ 0 nan nan 99.1655 0.0000 nan 100.00%
0 0 0.0000 28 99.1655 0.0000 111 100.00%
0+ 0 nan nan 90.1550 0.0000 nan 100.00%
0+ 0 nan nan 81.1556 0.0000 nan 100.00%
0 2 0.0000 28 81.1556 0.0000 111 100.00%
CPXPARAM_MIP_Cuts_GUBCovers 0
1
Node Left Objective IInf Best_Integer Best_Bound ItCnt Gap
0+ 0 nan nan 136.4723 0.0000 nan 100.00%
0+ 0 nan nan 99.1655 0.0000 nan 100.00%
0 0 0.0000 31 99.1655 0.0000 106 100.00%
0+ 0 nan nan 74.7431 0.0000 nan 100.00%
0+ 0 nan nan 56.6896 0.0000 nan 100.00%
0+ 0 nan nan 49.1513 0.0000 nan 100.00%
0 2 0.0000 31 49.1513 0.0000 106 100.00%
CPXPARAM_MIP_Cuts_GUBCovers 0
2
Node Left Objective IInf Best_Integer Best_Bound ItCnt Gap
0+ 0 nan nan 136.4723 0.0000 nan 100.00%
0+ 0 nan nan 69.8576 0.0000 nan 100.00%
0 0 0.0000 23 69.8576 0.0000 113 100.00%
0+ 0 nan nan 65.6449 0.0000 nan 100.00%
0+ 0 nan nan 56.8891 0.0000 nan 100.00%
0 2 0.0000 23 56.8891 0.0000 113 100.00%
CPXPARAM_MIP_Cuts_GUBCovers 0
3
Node Left Objective IInf Best_Integer Best_Bound ItCnt Gap
0+ 0 nan nan 136.4723 0.0000 nan 100.00%
0 0 0.0000 28 136.4723 0.0000 97 100.00%
0+ 0 nan nan 39.4022 0.0000 nan 100.00%
0+ 0 nan nan 29.2607 0.0000 nan 100.00%
0 2 0.0000 27 29.2607 0.0000 97 100.00%
CPXPARAM_MIP_Cuts_GUBCovers 0
4
Node Left Objective IInf Best_Integer Best_Bound ItCnt Gap
0+ 0 nan nan 115.1924 0.0000 nan 100.00%
0+ 0 nan nan 108.1598 0.0000 nan 100.00%
0 0 0.0000 27 108.1598 0.0000 113 100.00%
0+ 0 nan nan 104.3379 0.0000 nan 100.00%
0+ 0 nan nan 87.9413 0.0000 nan 100.00%
0+ 0 nan nan 74.6060 0.0000 nan 100.00%
0+ 0 nan nan 68.9902 0.0000 nan 100.00%
0 2 0.0000 27 68.9902 0.0000 113 100.00%
CPXPARAM_MIP_Cuts_GUBCovers 0
5
Node Left Objective IInf Best_Integer Best_Bound ItCnt Gap
0+ 0 nan nan 115.1924 0.0000 nan 100.00%
0+ 0 nan nan 108.1598 0.0000 nan 100.00%
0 0 0.0000 30 108.1598 0.0000 101 100.00%
0+ 0 nan nan 67.1398 0.0000 nan 100.00%
0+ 0 nan nan 51.8962 0.0000 nan 100.00%
0+ 0 nan nan 38.4401 0.0000 nan 100.00%
0 2 0.0000 30 38.4401 0.0000 101 100.00%
CPXPARAM_MIP_Cuts_GUBCovers 0
6
Node Left Objective IInf Best_Integer Best_Bound ItCnt Gap
0+ 0 nan nan 115.1924 0.0000 nan 100.00%
0+ 0 nan nan 81.9438 0.0000 nan 100.00%
0 0 0.0000 24 81.9438 0.0000 119 100.00%
0+ 0 nan nan 65.4613 0.0000 nan 100.00%
0+ 0 nan nan 51.7331 0.0000 nan 100.00%
0 2 0.0000 24 51.7331 0.0000 119 100.00%
CPXPARAM_MIP_Cuts_GUBCovers 0
7
Node Left Objective IInf Best_Integer Best_Bound ItCnt Gap
0+ 0 nan nan 115.1924 0.0000 nan 100.00%
0 0 0.0000 30 115.1924 0.0000 95 100.00%
0+ 0 nan nan 56.4052 0.0000 nan 100.00%
0+ 0 nan nan 33.8525 0.0000 nan 100.00%
0+ 0 nan nan 26.3494 0.0000 nan 100.00%
0 2 0.0000 30 26.3494 0.0000 95 100.00%
CPXPARAM_MIP_Cuts_GUBCovers 0
8
Node Left Objective IInf Best_Integer Best_Bound ItCnt Gap
0+ 0 nan nan 131.6037 0.0000 nan 100.00%
0+ 0 nan nan 111.2422 0.0000 nan 100.00%
0 0 0.0000 28 111.2422 0.0000 113 100.00%
0+ 0 nan nan 105.1373 0.0000 nan 100.00%
0+ 0 nan nan 85.6046 0.0000 nan 100.00%
0 2 0.0000 28 85.6046 0.0000 113 100.00%
CPXPARAM_MIP_Cuts_GUBCovers 0
9
Node Left Objective IInf Best_Integer Best_Bound ItCnt Gap
0+ 0 nan nan 131.6037 0.0000 nan 100.00%
0 0 0.0000 27 131.6037 0.0000 90 100.00%
0+ 0 nan nan 78.9542 0.0000 nan 100.00%
0+ 0 nan nan 66.5165 0.0000 nan 100.00%
0+ 0 nan nan 63.2154 0.0000 nan 100.00%
0 2 0.0000 27 63.2154 0.0000 90 100.00%
CPXPARAM_MIP_Cuts_GUBCovers 0
10
Node Left Objective IInf Best_Integer Best_Bound ItCnt Gap
0+ 0 nan nan 131.6037 0.0000 nan 100.00%
0+ 0 nan nan 99.6733 0.0000 nan 100.00%
0 0 0.0000 23 99.6733 0.0000 104 100.00%
0+ 0 nan nan 72.2990 0.0000 nan 100.00%
0 2 0.0000 23 72.2990 0.0000 104 100.00%
CPXPARAM_MIP_Cuts_GUBCovers 0
11
Node Left Objective IInf Best_Integer Best_Bound ItCnt Gap
0+ 0 nan nan 131.6037 0.0000 nan 100.00%
0 0 0.0000 27 131.6037 0.0000 91 100.00%
0+ 0 nan nan 80.8991 0.0000 nan 100.00%
0+ 0 nan nan 45.0945 0.0000 nan 100.00%
0+ 0 nan nan 42.2050 0.0000 nan 100.00%
0 2 0.0000 27 42.2050 0.0000 91 100.00%
CPXPARAM_MIP_Cuts_GUBCovers 0
12
Node Left Objective IInf Best_Integer Best_Bound ItCnt Gap
0+ 0 nan nan 110.3567 0.0000 nan 100.00%
0+ 0 nan nan 96.6816 0.0000 nan 100.00%
0 0 0.0000 28 96.6816 0.0000 120 100.00%
0+ 0 nan nan 89.9633 0.0000 nan 100.00%
0+ 0 nan nan 76.5543 0.0000 nan 100.00%
0 2 0.0000 28 76.5543 0.0000 120 100.00%
CPXPARAM_MIP_Cuts_GUBCovers 0
13
Node Left Objective IInf Best_Integer Best_Bound ItCnt Gap
0+ 0 nan nan 110.3567 0.0000 nan 100.00%
0 0 0.0000 29 110.3567 0.0000 95 100.00%
0+ 0 nan nan 73.5274 0.0000 nan 100.00%
0+ 0 nan nan 62.2081 0.0000 nan 100.00%
0+ 0 nan nan 52.7033 0.0000 nan 100.00%
0 2 0.0000 29 52.7033 0.0000 95 100.00%
CPXPARAM_MIP_Cuts_GUBCovers 0
14
Node Left Objective IInf Best_Integer Best_Bound ItCnt Gap
0+ 0 nan nan 110.3567 0.0000 nan 100.00%
0+ 0 nan nan 82.1268 0.0000 nan 100.00%
0 0 0.0000 23 82.1268 0.0000 108 100.00%
0+ 0 nan nan 73.1398 0.0000 nan 100.00%
0+ 0 nan nan 68.0403 0.0000 nan 100.00%
0 2 0.0000 23 68.0403 0.0000 108 100.00%
CPXPARAM_MIP_Cuts_GUBCovers 0
15
Node Left Objective IInf Best_Integer Best_Bound ItCnt Gap
0+ 0 nan nan 110.3567 0.0000 nan 100.00%
0 0 0.0000 30 110.3567 0.0000 91 100.00%
0+ 0 nan nan 60.8183 0.0000 nan 100.00%
0+ 0 nan nan 36.9099 0.0000 nan 100.00%
0 2 0.0000 30 36.9099 0.0000 91 100.00%
CPXPARAM_MIP_Cuts_GUBCovers 0
16
Node Left Objective IInf Best_Integer Best_Bound ItCnt Gap
0+ 0 nan nan 109.2984 0.0000 nan 100.00%
0+ 0 nan nan 97.6971 0.0000 nan 100.00%
0 0 0.0000 29 97.6971 0.0000 108 100.00%
0+ 0 nan nan 85.3149 0.0000 nan 100.00%
0+ 0 nan nan 69.7735 0.0000 nan 100.00%
0 2 0.0000 29 69.7735 0.0000 108 100.00%
CPXPARAM_MIP_Cuts_GUBCovers 0
17
Node Left Objective IInf Best_Integer Best_Bound ItCnt Gap
0+ 0 nan nan 109.2984 0.0000 nan 100.00%
0+ 0 nan nan 97.6971 0.0000 nan 100.00%
0 0 0.0000 28 97.6971 0.0000 90 100.00%
0+ 0 nan nan 86.4966 0.0000 nan 100.00%
0+ 0 nan nan 66.8323 0.0000 nan 100.00%
0+ 0 nan nan 53.6532 0.0000 nan 100.00%
0 2 0.0000 28 53.6532 0.0000 90 100.00%
CPXPARAM_MIP_Cuts_GUBCovers 0
18
Node Left Objective IInf Best_Integer Best_Bound ItCnt Gap
0+ 0 nan nan 109.2984 0.0000 nan 100.00%
0+ 0 nan nan 86.6088 0.0000 nan 100.00%
0 0 0.0000 23 86.6088 0.0000 113 100.00%
0+ 0 nan nan 74.5980 0.0000 nan 100.00%
0 2 0.0000 23 74.5980 0.0000 113 100.00%
CPXPARAM_MIP_Cuts_GUBCovers 0
19
Node Left Objective IInf Best_Integer Best_Bound ItCnt Gap
0+ 0 nan nan 109.2984 0.0000 nan 100.00%
0 0 0.0000 26 109.2984 0.0000 87 100.00%
0+ 0 nan nan 64.4883 0.0000 nan 100.00%
0+ 0 nan nan 55.4430 0.0000 nan 100.00%
0 2 0.0000 26 55.4430 0.0000 87 100.00%
CPXPARAM_MIP_Cuts_GUBCovers 0
20
Node Left Objective IInf Best_Integer Best_Bound ItCnt Gap
0+ 0 nan nan 93.3792 0.0000 nan 100.00%
0+ 0 nan nan 84.6822 0.0000 nan 100.00%
0 0 0.0000 27 84.6822 0.0000 110 100.00%
0+ 0 nan nan 79.4096 0.0000 nan 100.00%
0+ 0 nan nan 76.0972 0.0000 nan 100.00%
0+ 0 nan nan 53.6944 0.0000 nan 100.00%
0 2 0.0000 27 53.6944 0.0000 110 100.00%
CPXPARAM_MIP_Cuts_GUBCovers 0
21
Node Left Objective IInf Best_Integer Best_Bound ItCnt Gap
0+ 0 nan nan 93.3792 0.0000 nan 100.00%
0+ 0 nan nan 84.6822 0.0000 nan 100.00%
0 0 0.0000 31 84.6822 0.0000 99 100.00%
0+ 0 nan nan 48.4437 0.0000 nan 100.00%
0+ 0 nan nan 43.7509 0.0000 nan 100.00%
0 2 0.0000 31 43.7509 0.0000 99 100.00%
CPXPARAM_MIP_Cuts_GUBCovers 0
22
Node Left Objective IInf Best_Integer Best_Bound ItCnt Gap
0+ 0 nan nan 93.3792 0.0000 nan 100.00%
0+ 0 nan nan 77.4137 0.0000 nan 100.00%
0 0 0.0000 23 77.4137 0.0000 115 100.00%
0+ 0 nan nan 59.6779 0.0000 nan 100.00%
0+ 0 nan nan 39.8555 0.0000 nan 100.00%
0+ 0 nan nan 39.1210 0.0000 nan 100.00%
0 2 0.0000 23 39.1210 0.0000 115 100.00%
CPXPARAM_MIP_Cuts_GUBCovers 0
23
Node Left Objective IInf Best_Integer Best_Bound ItCnt Gap
0+ 0 nan nan 93.3792 0.0000 nan 100.00%
0+ 0 nan nan 77.4137 0.0000 nan 100.00%
0 0 0.0000 26 77.4137 0.0000 103 100.00%
0+ 0 nan nan 20.9566 0.0000 nan 100.00%
0+ 0 nan nan 7.8668 0.0000 nan 100.00%
0 2 0.0000 26 7.8668 0.0000 103 100.00%
CPXPARAM_MIP_Cuts_GUBCovers 0
24
Node Left Objective IInf Best_Integer Best_Bound ItCnt Gap
0+ 0 nan nan 94.5045 0.0000 nan 100.00%
0+ 0 nan nan 83.7373 0.0000 nan 100.00%
0 0 0.0000 28 83.7373 0.0000 111 100.00%
0+ 0 nan nan 76.9365 0.0000 nan 100.00%
0+ 0 nan nan 59.5752 0.0000 nan 100.00%
0 2 0.0000 28 59.5752 0.0000 111 100.00%
CPXPARAM_MIP_Cuts_GUBCovers 0
25
Node Left Objective IInf Best_Integer Best_Bound ItCnt Gap
0+ 0 nan nan 94.5045 0.0000 nan 100.00%
0 0 0.0000 31 94.5045 0.0000 95 100.00%
0+ 0 nan nan 62.0483 0.0000 nan 100.00%
0+ 0 nan nan 46.7241 0.0000 nan 100.00%
0 2 0.0000 31 46.7241 0.0000 95 100.00%
CPXPARAM_MIP_Cuts_GUBCovers 0
26
Node Left Objective IInf Best_Integer Best_Bound ItCnt Gap
0+ 0 nan nan 94.5045 0.0000 nan 100.00%
0+ 0 nan nan 77.5045 0.0000 nan 100.00%
0 0 0.0000 25 77.5045 0.0000 112 100.00%
0+ 0 nan nan 70.0813 0.0000 nan 100.00%
0+ 0 nan nan 60.7352 0.0000 nan 100.00%
0+ 0 nan nan 55.5297 0.0000 nan 100.00%
0 2 0.0000 25 55.5297 0.0000 112 100.00%
CPXPARAM_MIP_Cuts_GUBCovers 0
27
Node Left Objective IInf Best_Integer Best_Bound ItCnt Gap
0+ 0 nan nan 94.5045 0.0000 nan 100.00%
0 0 0.0000 27 94.5045 0.0000 91 100.00%
0+ 0 nan nan 38.5485 0.0000 nan 100.00%
0 2 0.0000 27 38.5485 0.0000 91 100.00%
CPXPARAM_MIP_Cuts_GUBCovers 0
28
Node Left Objective IInf Best_Integer Best_Bound ItCnt Gap
0+ 0 nan nan 133.7092 0.0000 nan 100.00%
0+ 0 nan nan 129.6212 0.0000 nan 100.00%
0 0 0.0000 30 129.6212 0.0000 103 100.00%
0+ 0 nan nan 112.0881 0.0000 nan 100.00%
0+ 0 nan nan 106.5614 0.0000 nan 100.00%
0 2 0.0000 30 106.5614 0.0000 103 100.00%
CPXPARAM_MIP_Cuts_GUBCovers 0
29
Node Left Objective IInf Best_Integer Best_Bound ItCnt Gap
0+ 0 nan nan 133.7092 0.0000 nan 100.00%
0 0 0.0000 31 133.7092 0.0000 98 100.00%
0+ 0 nan nan 91.3907 0.0000 nan 100.00%
0+ 0 nan nan 60.8473 0.0000 nan 100.00%
0 2 0.0000 31 60.8473 0.0000 98 100.00%
CPXPARAM_MIP_Cuts_GUBCovers 0
30
Node Left Objective IInf Best_Integer Best_Bound ItCnt Gap
0+ 0 nan nan 133.7092 0.0000 nan 100.00%
0+ 0 nan nan 114.7297 0.0000 nan 100.00%
0 0 0.0000 25 114.7297 0.0000 108 100.00%
0+ 0 nan nan 107.8528 0.0000 nan 100.00%
0+ 0 nan nan 101.4808 0.0000 nan 100.00%
0+ 0 nan nan 89.8900 0.0000 nan 100.00%
0 2 0.0000 25 89.8900 0.0000 108 100.00%
CPXPARAM_MIP_Cuts_GUBCovers 0
31
Node Left Objective IInf Best_Integer Best_Bound ItCnt Gap
0+ 0 nan nan 133.7092 0.0000 nan 100.00%
0 0 0.0000 29 133.7092 0.0000 94 100.00%
0+ 0 nan nan 87.7465 0.0000 nan 100.00%
0+ 0 nan nan 71.0495 0.0000 nan 100.00%
0+ 0 nan nan 53.4482 0.0000 nan 100.00%
0 2 0.0000 29 53.4482 0.0000 94 100.00%
CPXPARAM_MIP_Cuts_GUBCovers 0
32
Node Left Objective IInf Best_Integer Best_Bound ItCnt Gap
0+ 0 nan nan 110.7059 0.0000 nan 100.00%
0+ 0 nan nan 93.8685 0.0000 nan 100.00%
0 0 0.0000 27 93.8685 0.0000 111 100.00%
0+ 0 nan nan 85.3755 0.0000 nan 100.00%
0+ 0 nan nan 68.7488 0.0000 nan 100.00%
0 2 0.0000 27 68.7488 0.0000 111 100.00%
CPXPARAM_MIP_Cuts_GUBCovers 0
33
Node Left Objective IInf Best_Integer Best_Bound ItCnt Gap
0+ 0 nan nan 110.7059 0.0000 nan 100.00%
0+ 0 nan nan 93.8685 0.0000 nan 100.00%
0 0 0.0000 31 93.8685 0.0000 108 100.00%
0+ 0 nan nan 60.1525 0.0000 nan 100.00%
0+ 0 nan nan 46.4151 0.0000 nan 100.00%
0 2 0.0000 31 46.4151 0.0000 108 100.00%
CPXPARAM_MIP_Cuts_GUBCovers 0
34
Node Left Objective IInf Best_Integer Best_Bound ItCnt Gap
0+ 0 nan nan 110.7059 0.0000 nan 100.00%
0+ 0 nan nan 74.9711 0.0000 nan 100.00%
0 0 0.0000 23 74.9711 0.0000 113 100.00%
0+ 0 nan nan 70.5384 0.0000 nan 100.00%
0+ 0 nan nan 64.9361 0.0000 nan 100.00%
0+ 0 nan nan 55.3904 0.0000 nan 100.00%
0 2 0.0000 23 55.3904 0.0000 113 100.00%
CPXPARAM_MIP_Cuts_GUBCovers 0
35
Node Left Objective IInf Best_Integer Best_Bound ItCnt Gap
0+ 0 nan nan 110.7059 0.0000 nan 100.00%
0 0 0.0000 28 110.7059 0.0000 90 100.00%
0+ 0 nan nan 41.4039 0.0000 nan 100.00%
0+ 0 nan nan 31.2015 0.0000 nan 100.00%
0 2 0.0000 28 31.2015 0.0000 90 100.00%
CPXPARAM_MIP_Cuts_GUBCovers 0
36
Node Left Objective IInf Best_Integer Best_Bound ItCnt Gap
0+ 0 nan nan 123.7135 0.0000 nan 100.00%
0+ 0 nan nan 108.6148 0.0000 nan 100.00%
0 0 0.0000 28 108.6148 0.0000 112 100.00%
0+ 0 nan nan 100.1659 0.0000 nan 100.00%
0+ 0 nan nan 83.0848 0.0000 nan 100.00%
0+ 0 nan nan 75.6499 0.0000 nan 100.00%
0 2 0.0000 28 75.6499 0.0000 112 100.00%
CPXPARAM_MIP_Cuts_GUBCovers 0
37
Node Left Objective IInf Best_Integer Best_Bound ItCnt Gap
0+ 0 nan nan 123.7135 0.0000 nan 100.00%
0+ 0 nan nan 108.6148 0.0000 nan 100.00%
0 0 0.0000 31 108.6148 0.0000 99 100.00%
0+ 0 nan nan 72.9404 0.0000 nan 100.00%
0+ 0 nan nan 62.2531 0.0000 nan 100.00%
0+ 0 nan nan 60.4478 0.0000 nan 100.00%
0 2 0.0000 31 60.4478 0.0000 99 100.00%
CPXPARAM_MIP_Cuts_GUBCovers 0
38
Node Left Objective IInf Best_Integer Best_Bound ItCnt Gap
0+ 0 nan nan 123.7135 0.0000 nan 100.00%
0+ 0 nan nan 89.1896 0.0000 nan 100.00%
0 0 0.0000 23 89.1896 0.0000 103 100.00%
0+ 0 nan nan 81.0501 0.0000 nan 100.00%
0+ 0 nan nan 66.8360 0.0000 nan 100.00%
0+ 0 nan nan 66.1370 0.0000 nan 100.00%
0 2 0.0000 23 66.1370 0.0000 103 100.00%
CPXPARAM_MIP_Cuts_GUBCovers 0
39
Node Left Objective IInf Best_Integer Best_Bound ItCnt Gap
0+ 0 nan nan 123.7135 0.0000 nan 100.00%
0 0 0.0000 29 123.7135 0.0000 93 100.00%
0+ 0 nan nan 73.9869 0.0000 nan 100.00%
0+ 0 nan nan 49.9110 0.0000 nan 100.00%
0+ 0 nan nan 36.6732 0.0000 nan 100.00%
0 2 0.0000 29 36.6732 0.0000 93 100.00%
CPXPARAM_MIP_Cuts_GUBCovers 0
